c ---- [ banner ] ------------------------------------------------------------
c
c Kissat SAT Solver
c 
c Copyright (c) 2021-2022 Armin Biere University of Freiburg
c Copyright (c) 2019-2021 Armin Biere Johannes Kepler University Linz
c 
c Version 3.0.0 97917ddf2b12adc6f63c7b2a5a403a1ee7d81836
c /share/apps/gcc/7.3/bin/gcc -W -O -DNDEBUG 
c Mon Jul 25 20:22:07 +08 2022 Linux sm101 2.6.32-131.0.15.el6.x86_64 x86_64
c
c ---- [ parsing ] -----------------------------------------------------------
c
c opened and reading DIMACS file:
c
c   /home/vkondratev/data/Multipliers_2022/testing/testing_snakes/cnfs/s-n-b_5_15.cnf
c
c parsed 'p cnf 600 2800' header
c closing input after reading 44901 bytes (44 KB)
c finished parsing after 0.00 seconds
c
c ---- [ solving ] -----------------------------------------------------------
c
c  seconds switched rate      trail    variables
c         MB reductions conflicts glue     remaining
c          level restarts redundant irredundant
c
c *  0.00  1 0 0 0  0 0   0   0 0% 0 2800 600 100%
c {  0.00  1 0 0 0  0 0   0   0 0% 0 2800 600 100%
c -  0.01  1 40 0 1 220 9 1000 480 28% 5 2750 600 100%
c }  0.01  1 40 1 1 220 9 1000 480 28% 5 2750 600 100%
c [  0.01  1 0 1 1 220 0 1000 480 0% 0 2750 600 100%
c B  0.01  1 27 1 1 220 3 1001 481 64% 8 2750 600 100%
c u  0.02  2 17 1 1 220 1 1190 605 17% 5 2748 600 100%
c v  0.02  2 17 1 1 220 1 1190 593 17% 5 2748 600 100%
c ]  0.03  2 21 2 1 220 1 1960 1319 49% 8 2725 600 100%
c {  0.03  2 40 2 1 220 9 1960 1319 28% 5 2725 600 100%
c -  0.03  2 39 2 2 234 9 2000 978 28% 6 2723 600 100%
c u  0.04  2 35 2 2 342 9 2374 1247 29% 6 2718 600 100%
c v  0.04  2 35 2 2 342 9 2374 1222 29% 6 2718 600 100%
c }  0.05  2 33 3 2 397 8 2664 1465 29% 6 2716 600 100%
c [  0.05  2 21 3 2 397 1 2664 1465 49% 8 2716 600 100%
c W  0.05  2 21 3 2 397 1 2664 1465 49% 8 2716 600 100%
c -  0.06  2 21 3 3 397 2 3417 1445 52% 9 2714 600 100%
c ]  0.08  2 21 4 3 398 2 4191 2202 51% 9 2713 600 100%
c {  0.08  2 33 4 3 398 8 4191 2202 29% 6 2713 600 100%
c u  0.09  2 29 4 3 506 8 4830 2680 31% 7 2710 600 100%
c
c  seconds  switched  rate         trail    variables
c         MB reductions conflicts     glue      remaining
c          level restarts   redundant irredundant
c
c v  0.09  2 29 4 3 506 8 4830 2649 31% 7 2710 600 100%
c -  0.10  2 29 4 4 529 7 5150 1983 31% 7 2709 600 100%
c }  0.11  2 28 5 4 662 7 5658 2457 32% 7 2709 600 100%
c [  0.11  2 21 5 4 662 2 5658 2457 51% 9 2709 600 100%
c I  0.11  2 21 5 4 662 2 5658 2457 51% 9 2709 600 100%
c e  0.12  2 21 5 4 662 2 5946 2740 50% 9 2709 509 85%
c ^  0.12  2 21 5 4 662 2 5946 2740 50% 9 2709 509 85%
c -  0.14  2 21 5 5 663 2 7151 1834 49% 9 2709 509 85%
c ]  0.17  2 21 6 5 664 1 8344 3016 49% 10 2709 509 85%
c {  0.17  2 28 6 5 664 7 8344 3016 32% 7 2709 509 85%
c u  0.18  2 27 6 5 723 7 8643 3165 33% 7 2709 509 85%
c v  0.18  2 27 6 5 723 7 8643 3112 33% 7 2709 509 85%
c -  0.20  2 26 6 6 825 7 9387 2328 34% 7 2709 509 85%
c }  0.22  2 25 7 6 973 6 10648 3535 35% 7 2709 509 85%
c [  0.22  2 21 7 6 973 1 10648 3535 49% 10 2709 509 85%
c B  0.22  2 21 7 6 973 1 10648 3535 49% 10 2709 509 85%
c -  0.25  2 21 7 7 974 2 11836 3101 48% 10 2709 509 85%
c e  0.25  2 21 7 7 974 2 11845 3110 48% 10 2723 495 82%
c ^  0.26  2 21 7 7 974 2 11845 3110 48% 10 2723 495 82%
c u  0.31  2 21 7 7 975 2 13891 4547 47% 10 2723 495 82%
c
c  seconds  switched  rate          trail     variables
c         MB reductions conflicts       glue      remaining
c          level restarts    redundant  irredundant
c
c v  0.31  2 21 7 7 975 2 13891 4470 47% 10 2723 495 82%
c ]  0.32  2 20 8 7 975 1 14214 4782 46% 10 2723 495 82%
c {  0.32  2 25 8 7 975 6 14214 4782 35% 7 2723 495 82%
c -  0.32  2 25 8 8 1003 6 14483 3034 36% 7 2723 495 82%
c -  0.39  3 23 8 9 1224 5 17311 3895 38% 7 2723 495 82%
c }  0.39  3 23 9 9 1272 5 17526 4101 38% 7 2723 495 82%
c [  0.39  3 20 9 9 1272 1 17526 4101 46% 10 2723 495 82%
c W  0.39  3 20 9 9 1272 1 17526 4101 46% 10 2723 495 82%
c -  0.47  3 20 9 10 1274 1 20311 4493 47% 10 2723 495 82%
c u  0.49  3 20 9 10 1274 1 20659 4540 47% 10 2723 495 82%
c v  0.49  3 20 9 10 1274 1 20659 4409 47% 10 2723 495 82%
c ]  0.51  3 19 10 10 1274 1 21413 5149 47% 10 2723 495 82%
c {  0.51  3 23 10 10 1274 5 21413 5149 38% 7 2723 495 82%
c -  0.57  3 23 10 11 1499 5 23473 4637 39% 7 2723 495 82%
c s  0.60  3 23 10 11 1628 5 24648 5778 40% 8 2721 495 82%
c e  0.60  3 23 10 11 1628 5 24648 5778 40% 8 2722 494 82%
c ^  0.60  3 23 10 11 1628 5 24648 5778 40% 8 2722 494 82%
c }  0.62  3 23 11 11 1695 5 25333 6294 40% 8 2722 494 82%
c [  0.62  3 19 11 11 1695 1 25333 6294 47% 10 2722 494 82%
c O  0.62  3 19 11 11 1695 1 25333 6294 47% 10 2722 494 82%
c
c  seconds   switched    rate          trail     variables
c         MB   reductions  conflicts       glue      remaining
c          level    restarts    redundant  irredundant
c
c -  0.66  3 19 11 12 1696 1 26789 5231 47% 10 2722 494 82%
c u  0.73  3 19 11 12 1697 1 28986 7225 48% 10 2722 494 82%
c v  0.73  3 19 11 12 1697 1 28986 7124 48% 10 2722 494 82%
c -  0.78  3 19 11 13 1698 1 30253 5144 48% 10 2722 494 82%
c ]  0.78  3 19 12 13 1698 1 30372 5263 48% 10 2722 494 82%
c {  0.78  3 23 12 13 1698 5 30372 5263 40% 8 2722 494 82%
c -  0.88  3 22 12 14 2014 4 33860 5839 42% 8 2722 494 82%
c }  0.91  3 22 13 14 2129 4 35132 7080 42% 8 2722 494 82%
c [  0.91  3 19 13 14 2129 1 35132 7080 48% 10 2722 494 82%
c B  0.91  3 19 13 14 2129 1 35132 7080 48% 10 2722 494 82%
c -  0.99  3 19 13 15 2131 1 37603 6410 49% 10 2722 494 82%
c u  1.04  3 19 13 15 2131 1 38929 7364 49% 10 2722 494 82%
c v  1.05  3 19 13 15 2131 1 38929 7197 49% 10 2722 494 82%
c ]  1.12  3 19 14 15 2133 1 40861 9118 50% 10 2722 494 82%
c {  1.12  3 22 14 15 2133 4 40861 9118 42% 8 2722 494 82%
c -  1.14  3 22 14 16 2191 4 41477 6285 42% 8 2722 494 82%
c e  1.25  3 21 14 16 2191 4 45267 9993 45% 8 3038 389 65%
c ^  1.25  3 21 14 16 2191 4 45267 9993 45% 8 3038 389 65%
c -  1.26  3 21 14 17 2198 4 45477 4278 45% 8 3038 389 65%
c }  1.32  3 20 15 17 2318 3 48097 6732 45% 7 3038 389 65%
c
c  seconds   switched    rate          trail     variables
c         MB   reductions  conflicts       glue      remaining
c          level    restarts    redundant  irredundant
c
c [  1.32  3 19 15 17 2318 1 48097 6732 50% 10 3038 389 65%
c W  1.32  3 19 15 17 2318 1 48097 6732 50% 10 3038 389 65%
c -  1.36  3 18 15 18 2319 1 49602 5749 51% 10 3038 389 65%
c u  1.40  3 18 15 18 2320 1 50549 6437 51% 10 3038 389 65%
c v  1.41  3 18 15 18 2320 1 50549 6235 51% 10 3038 389 65%
c -  1.52  3 18 15 19 2322 1 53845 6121 51% 10 3038 389 65%
c ]  1.57  3 18 16 19 2323 1 55467 7731 51% 10 3038 389 65%
c {  1.57  3 20 16 19 2323 3 55467 7731 45% 7 3038 389 65%
c -  1.66  3 20 16 20 2663 3 58203 6786 45% 8 3038 389 65%
c }  1.78  3 20 17 20 3017 3 61782 10236 45% 8 3038 389 65%
c [  1.78  3 18 17 20 3017 1 61782 10236 51% 10 3038 389 65%
c -  1.81  3 18 17 21 3017 1 62675 7604 51% 10 3038 389 65%
c I  1.82  3 18 17 21 3018 1 63001 7928 51% 10 3038 389 65%
c u  1.87  3 18 17 21 3019 1 64253 8719 52% 10 3038 389 65%
c v  1.88  3 18 17 21 3019 1 64253 8494 52% 10 3038 389 65%
c -  1.98  3 18 17 22 3021 1 67257 7264 52% 10 3038 389 65%
c ]  2.09  3 18 18 22 3023 1 70701 10694 53% 10 3038 389 65%
c {  2.09  3 20 18 22 3023 3 70701 10694 45% 8 3038 389 65%
c -  2.15  3 20 18 23 3212 3 71947 7657 45% 8 3038 389 65%
c e  2.26  3 20 18 23 3471 3 75382 10942 45% 8 3850 284 47%
c
c  seconds   switched    rate           trail    variables
c         MB   reductions  conflicts       glue      remaining
c          level    restarts     redundant irredundant
c
c s  2.26  3 20 18 23 3471 3 75382 10942 45% 8 3848 284 47%
c ^  2.26  3 20 18 23 3471 3 75382 10942 45% 8 3848 284 47%
c -  2.30  3 20 18 24 3574 3 76744 4538 45% 8 3848 284 47%
c u  2.38  3 20 18 24 3730 3 79766 7039 45% 8 3848 284 47%
c v  2.39  3 20 18 24 3730 3 79766 6807 45% 8 3848 284 47%
c }  2.41  3 20 19 24 3753 3 80158 7167 45% 8 3848 284 47%
c [  2.41  3 18 19 24 3753 1 80158 7167 53% 10 3848 284 47%
c B  2.43  3 18 19 24 3753 1 80804 7803 53% 10 3848 284 47%
c -  2.45  3 18 19 25 3754 1 81645 5840 53% 10 3848 284 47%
c -  2.57  3 17 19 26 3758 1 86645 7144 53% 9 3848 284 47%
c -  2.71  3 17 19 27 3759 1 91744 7868 52% 9 3848 284 47%
c ]  2.74  3 17 20 27 3760 1 93140 9231 52% 9 3848 284 47%
c {  2.74  3 20 20 27 3760 3 93140 9231 45% 8 3848 284 47%
c -  2.88  3 19 20 28 4058 3 96942 8883 45% 8 3848 284 47%
c u  2.93  4 19 20 28 4099 3 98173 9566 45% 8 3848 284 47%
c v  2.94  4 19 20 28 4099 3 98173 9329 45% 8 3848 284 47%
c -  3.09  3 19 20 29 4472 3 102233 8994 45% 8 3848 284 47%
c }  3.11  3 19 21 29 4518 3 102619 9369 45% 8 3848 284 47%
c [  3.11  3 17 21 29 4518 1 102619 9369 52% 9 3848 284 47%
c W  3.11  3 17 21 29 4518 1 102619 9369 52% 9 3848 284 47%
c
c  seconds   switched    rate           trail    variables
c         MB   reductions  conflicts       glue      remaining
c          level    restarts     redundant irredundant
c
c -  3.25  4 17 21 30 4521 1 107619 9119 52% 9 3848 284 47%
c -  3.42  4 16 21 31 4524 1 113096 9169 52% 9 3848 284 47%
c ]  3.51  3 16 22 31 4526 1 116159 12202 51% 9 3848 284 47%
c {  3.51  3 19 22 31 4526 3 116159 12202 45% 8 3848 284 47%
c e  3.56  4 19 22 31 4616 3 117620 13627 45% 8 5440 180 30%
c u  3.63  3 19 22 31 4682 3 118572 4080 45% 8 5440 180 30%
c v  3.65  3 19 22 31 4682 3 118572 3803 45% 8 5440 180 30%
c -  3.66  3 19 22 32 4695 3 118663 2654 45% 8 5440 180 30%
c -  3.80  3 19 22 33 5099 3 124319 5510 46% 8 5440 180 30%
c -  3.96  3 18 22 34 5571 3 130065 7710 46% 8 5440 180 30%
c }  3.96  3 18 23 34 5594 3 130163 7803 46% 8 5440 180 30%
c [  3.96  3 16 23 34 5594 1 130163 7803 51% 9 5440 180 30%
c O  3.96  3 16 23 34 5594 1 130163 7803 51% 9 5440 180 30%
c -  4.11  4 16 23 35 5598 1 135895 8690 51% 9 5440 180 30%
c -  4.27  4 16 23 36 5600 1 141811 9223 51% 9 5440 180 30%
c u  4.32  4 16 23 36 5601 1 142934 10005 51% 9 5440 180 30%
c v  4.34  4 16 23 36 5601 1 142934 9851 51% 9 5440 180 30%
c ]  4.45  4 15 24 36 5603 1 146683 13562 51% 9 5440 180 30%
c {  4.45  4 18 24 36 5603 3 146683 13562 46% 8 5440 180 30%
c -  4.50  4 18 24 37 5712 3 147811 9515 46% 8 5440 180 30%
c
c  seconds   switched    rate            trail    variables
c         MB   reductions  conflicts        glue      remaining
c          level    restarts      redundant irredundant
c
c -  4.74  4 18 24 38 6300 3 153893 10379 47% 8 5440 180 30%
c }  4.86  3 18 25 38 6645 3 157007 13437 47% 8 5440 180 30%
c [  4.86  3 15 25 38 6645 1 157007 13437 51% 9 5440 180 30%
c B  4.89  4 15 25 38 6645 1 157904 14326 52% 9 5440 180 30%
c -  4.96  4 15 25 39 6647 1 160060 10924 52% 9 5440 180 30%
c -  5.16  4 15 25 40 6651 1 166306 10941 52% 9 5440 180 30%
c u  5.31  4 15 25 40 6652 1 169543 13788 52% 9 5440 180 30%
c v  5.33  4 15 25 40 6652 1 169543 13454 52% 9 5440 180 30%
c ]  5.42  4 15 26 40 6654 1 171774 15658 52% 9 5440 180 30%
c {  5.42  4 18 26 40 6654 3 171774 15658 47% 8 5440 180 30%
c -  5.48  4 18 26 41 6809 3 172631 10405 47% 8 5440 180 30%
c s  5.60  4 18 26 41 7172 3 175542 13278 47% 8 5438 180 30%
c !  5.60  4 18 26 41 7172 3 175542 13278 47% 8 5438 180 30%
c -  5.76  4 18 26 42 7513 3 179034 11404 47% 8 5438 180 30%
c }  5.90  4 18 27 42 7825 3 182568 14908 48% 8 5438 180 30%
c [  5.90  4 15 27 42 7825 1 182568 14908 52% 9 5438 180 30%
c -  6.01  4 15 27 43 7827 1 185515 12048 52% 9 5438 180 30%
c W  6.14  4 15 27 43 7830 1 189354 15849 52% 9 5438 180 30%
c -  6.24  4 15 27 44 7831 1 192072 12297 52% 9 5438 180 30%
c ]  6.45  4 15 28 44 7834 1 198082 18233 52% 9 5438 180 30%
c
c  seconds   switched    rate            trail    variables
c         MB   reductions  conflicts        glue      remaining
c          level    restarts      redundant irredundant
c
c {  6.45  4 18 28 44 7834 3 198082 18233 48% 8 5438 180 30%
c u  6.52  5 18 28 44 7879 3 198442 18250 48% 8 5438 180 30%
c v  6.54  5 18 28 44 7879 3 198442 18102 48% 8 5438 180 30%
c -  6.57  4 18 28 45 7882 3 198705 12231 48% 8 5438 180 30%
c -  6.85  4 17 28 46 8370 3 205413 13246 48% 8 5438 180 30%
c }  7.08  4 17 29 46 8827 3 210501 18261 48% 8 5438 180 30%
c [  7.08  4 15 29 46 8827 1 210501 18261 52% 9 5438 180 30%
c -  7.15  5 15 29 47 8828 1 212195 13773 52% 9 5438 180 30%
c -  7.40  5 15 29 48 8833 1 219050 13515 52% 9 5438 180 30%
c I  7.61  5 15 29 48 8835 1 224705 19112 52% 9 5438 180 30%
c -  7.66  5 15 29 49 8836 1 225981 13504 52% 9 5438 180 30%
c ]  7.68  4 15 30 49 8836 1 226399 13920 52% 9 5438 180 30%
c {  7.68  4 17 30 49 8836 3 226399 13920 48% 8 5438 180 30%
c u  7.88  5 17 30 49 9068 3 229655 16638 48% 8 5438 180 30%
c v  7.90  5 17 30 49 9068 3 229655 16376 48% 8 5438 180 30%
c -  8.09  5 17 30 50 9435 3 232982 14306 48% 8 5438 180 30%
c }  8.37  4 17 31 50 9909 3 239159 20414 49% 8 5438 180 30%
c [  8.37  4 15 31 50 9909 1 239159 20414 52% 9 5438 180 30%
c -  8.41  5 15 31 51 9909 1 240054 15239 52% 9 5438 180 30%
c -  8.69  5 15 31 52 9914 1 247196 15358 52% 9 5438 180 30%
c
c  seconds   switched    rate            trail    variables
c         MB   reductions  conflicts        glue      remaining
c          level    restarts      redundant irredundant
c
c -  9.00  5 15 31 53 9918 1 254407 15565 53% 9 5438 180 30%
c ]  9.05  5 14 32 53 9918 1 255499 16647 53% 9 5438 180 30%
c {  9.05  5 17 32 53 9918 3 255499 16647 49% 8 5438 180 30%
c -  9.36  5 17 32 54 10334 3 261687 16867 49% 8 5438 180 30%
c u  9.50  5 17 32 54 10424 3 263228 17749 49% 8 5438 180 30%
c v  9.53  5 17 32 54 10424 3 263228 17473 49% 8 5438 180 30%
c }  9.83  5 17 33 54 10802 3 268812 23000 49% 8 5438 180 30%
c [  9.83  5 14 33 54 10802 1 268812 23000 53% 9 5438 180 30%
c B  9.83  5 14 33 54 10802 1 268812 23000 53% 9 5438 180 30%
c -  9.85  5 14 33 55 10802 1 269035 16768 53% 9 5438 180 30%
c - 10.17  5 14 33 56 10807 1 276454 16619 53% 9 5438 180 30%
c - 10.50  5 14 33 57 10811 1 283939 16599 53% 9 5438 180 30%
c ] 10.58  5 14 34 57 10812 1 286015 18659 53% 9 5438 180 30%
c { 10.58  5 17 34 57 10812 3 286015 18659 49% 8 5438 180 30%
c - 10.84  5 16 34 58 11035 3 291490 17960 49% 8 5438 180 30%
c - 11.23  5 16 34 59 11362 3 299105 18950 49% 8 5438 180 30%
c u 11.32  6 16 34 59 11379 3 299187 18701 49% 8 5438 180 30%
c v 11.36  6 16 34 59 11379 3 299187 18428 49% 8 5438 180 30%
c } 11.47  5 16 35 59 11452 3 300961 20181 49% 8 5438 180 30%
c [ 11.47  5 14 35 59 11452 1 300961 20181 53% 9 5438 180 30%
c
c  seconds   switched     rate            trail    variables
c         MB   reductions   conflicts        glue      remaining
c          level    restarts       redundant irredundant
c
c - 11.73  6 14 35 60 11456 1 306786 18911 53% 9 5438 180 30%
c W 12.01  5 14 35 60 11458 1 312523 24583 53% 9 5438 180 30%
c - 12.11  5 14 35 61 11460 1 314535 18800 53% 9 5438 180 30%
c ] 12.29  5 14 36 61 11462 1 318349 22563 53% 9 5438 180 30%
c { 12.29  5 16 36 61 11462 3 318349 22563 49% 8 5438 180 30%
c - 12.57  5 16 36 62 11927 3 322345 19344 49% 8 5438 180 30%
c - 13.02  5 16 36 63 12433 3 330220 20203 50% 8 5438 180 30%
c } 13.11  5 16 37 63 12547 3 331819 21787 50% 8 5438 180 30%
c [ 13.11  5 14 37 63 12547 1 331819 21787 53% 9 5438 180 30%
c u 13.49  6 14 37 63 12551 1 337562 26977 53% 9 5438 180 30%
c v 13.53  6 14 37 63 12551 1 337562 26665 53% 9 5438 180 30%
c - 13.59  5 14 37 64 12552 1 338158 19991 54% 9 5438 180 30%
c - 13.99  6 14 37 65 12555 1 346161 21331 54% 9 5438 180 30%
c ] 14.16  6 14 38 65 12558 1 349673 24818 54% 9 5438 180 30%
c { 14.16  6 16 38 65 12558 3 349673 24818 50% 8 5438 180 30%
c - 14.43  5 16 38 66 12746 3 354223 22434 50% 8 5438 180 30%
c - 14.88  5 15 38 67 12993 2 362349 22497 50% 8 5438 180 30%
c } 15.07  6 15 39 67 13078 2 366092 26208 50% 8 5438 180 30%
c [ 15.07  6 14 39 67 13078 1 366092 26208 54% 9 5438 180 30%
c O 15.07  6 14 39 67 13078 1 366092 26208 54% 9 5438 180 30%
c
c  seconds   switched     rate            trail    variables
c         MB   reductions   conflicts        glue      remaining
c          level    restarts       redundant irredundant
c
c - 15.32  6 14 39 68 13081 1 370537 23227 54% 9 5438 180 30%
c u 15.84  7 13 39 68 13084 1 378379 30463 54% 8 5438 180 30%
c v 15.89  7 13 39 68 13084 1 378379 30205 54% 8 5438 180 30%
c - 15.95  6 13 39 69 13085 1 378784 23148 54% 8 5438 180 30%
c ] 16.21  5 13 40 69 13088 1 383418 27754 54% 8 5438 180 30%
c { 16.21  5 15 40 69 13088 2 383418 27754 50% 8 5438 180 30%
c - 16.42  6 15 40 70 13176 2 387090 24896 50% 8 5438 180 30%
c - 16.94  6 15 40 71 13609 2 395456 25919 50% 8 5438 180 30%
c } 17.20  6 14 41 71 13757 2 400234 30673 50% 8 5438 180 30%
c [ 17.20  6 13 41 71 13757 1 400234 30673 54% 8 5438 180 30%
c - 17.42  6 13 41 72 13759 1 403883 25713 54% 8 5438 180 30%
c - 17.90  6 13 41 73 13763 1 412369 26402 54% 8 5438 180 30%
c ] 18.24  6 13 42 73 13767 1 417698 31694 54% 8 5438 180 30%
c { 18.24  6 14 42 73 13767 2 417698 31694 50% 8 5438 180 30%
c - 18.45  6 14 42 74 13873 2 420913 28291 50% 8 5438 180 30%
c u 18.62  6 14 42 74 13873 2 421667 24015 50% 8 5438 180 30%
c v 18.68  6 14 42 74 13873 2 421667 23461 50% 8 5438 180 30%
c i 18.75  5 14 42 74 13873 2 422553 24345 51% 8 5438 179 30%
c i 18.87  6 14 42 74 13917 2 424757 26525 51% 8 5438 178 30%
c i 19.09  6 14 42 74 13955 2 428867 30616 51% 8 5438 177 29%
c
c  seconds   switched     rate            trail    variables
c         MB   reductions   conflicts        glue      remaining
c          level    restarts       redundant irredundant
c
c - 19.13  6 14 42 75 13956 2 429515 19329 51% 8 5438 177 29%
c e 19.16  4 14 42 75 13956 2 429885 19698 51% 8 5043 151 25%
c s 19.17  4 14 42 75 13956 2 429885 19698 51% 8 4934 151 25%
c e 19.18  4 14 42 75 13956 2 429885 19698 51% 8 4950 150 25%
c i 19.19  5 14 42 75 13956 2 430139 15316 51% 8 4950 149 25%
c i 19.24  5 14 42 75 13965 2 431665 16803 51% 8 4950 148 25%
c i 19.36  5 14 42 75 13982 2 435015 20006 51% 8 4950 147 24%
c i 19.36  5 14 42 75 13982 2 435066 20054 51% 8 4950 146 24%
c i 19.40  6 13 42 75 13982 2 436072 21025 51% 8 4950 145 24%
c i 19.42  6 13 42 75 13982 2 436704 21637 51% 8 4950 144 24%
c i 19.42  6 13 42 75 13982 2 436708 21640 51% 8 4950 143 24%
c i 19.44  6 13 42 75 13982 2 437176 22095 51% 8 4950 141 23%
c i 19.44  6 13 42 75 13982 2 437188 22100 51% 8 4950 139 23%
c } 19.44  6 13 42 75 13982 2 437192 22102 51% 8 4950 118 20%
c 0 19.44  6 13 42 75 13982 2 437192 22102 51% 8 4950 118 20%
c
c ---- [ result ] ------------------------------------------------------------
c
s UNSATISFIABLE
c
c ---- [ profiling ] ---------------------------------------------------------
c
c          17.89   92.04 %  search
c           9.01   46.32 %  stable
c           8.89   45.72 %  focused
c           1.54    7.94 %  simplify
c           1.39    7.17 %  probe
c           1.16    5.95 %  vivify
c           0.24    1.22 %  reduce
c           0.16    0.82 %  sweep
c           0.13    0.68 %  eliminate
c           0.08    0.40 %  substitute
c           0.04    0.21 %  subsume
c           0.02    0.08 %  walking
c           0.00    0.01 %  warmup
c           0.00    0.01 %  parse
c =============================================
c          19.44  100.00 %  total
c
c ---- [ statistics ] --------------------------------------------------------
c
c conflicts:                           437192            22473.07 per second
c decisions:                           795091                1.82 per conflict
c eliminated:                             447               74 %  variables
c propagations:                      13271500           682198    per second
c reductions:                              75             5829    interval
c rephased:                                18            24288    interval
c restarts:                             13982               31.27 interval
c strengthened:                          4809                0 %  checks
c subsumed:                               522                0 %  checks
c vivified:                             20615               72 %  checks
c walk_improved:                            6              100 %  walks
c walks:                                    6            72865    interval
c
c ---- [ resources ] ---------------------------------------------------------
c
c maximum-resident-set-size:          7749632 bytes          7 MB
c process-time:                            19s              19.44 seconds
c
c ---- [ shutting down ] -----------------------------------------------------
c
c exit 20
